50
    15     8    76     5    53   100    39    40    73     5    76    62    25    67    82    22    75    73    21    66     7    50    18    28    17    64    68    32    19    23    29    95    43    77    24    22    32    13    45    12    47    63    47    50    64    96    50    17    74    24
     8     7     5     3     1     8    10     1     8     8     9     6     5     9     5     3     8     3    10     3     2     9     4     4     1     3    10     2     2     6     7    10     7     2     5     7     2     4     6     2     9    10     9     8     2     9     3     7     4     3
   343   789   836   683   905   829  1079   404   789     1  1086   463    22   526     0     0   690   276    78   364     0     0  1019   988     0    39  1034   428   113   255    58  1045   199   351   359   327    65   733     0   378   666   889  1023   690   961     0     0   937   969     0
